c read Graph
c width = 227
c time = 521 ms
c width = 17
c time = 740 ms
c width = 15
c time = 988 ms
c width = 14
c time = 1472 ms
c width = 14
c time = 4453 ms
s td 212 15 240
b 1 1 2 21
b 2 2 3 21 22
b 3 18 19 39 40
b 4 3 21 22 41
b 5 18 39 40 60
b 6 181 201 202 222
b 7 200 219 220 239
b 8 181 202 222 223
b 9 200 219 238 239
b 10 3 4 5 24
b 11 3 5 23 24 42 61
b 12 5 23 24 42 44 61 63
b 13 5 24 42 44 61 63 82
b 14 5 24 44 61 63 82 101
b 15 5 24 26 44 45 63 82 101
b 16 5 26 44 45 63 65 82 84 101
b 17 44 63 64 65 84
b 18 5 26 45 63 65 82 84 101 103
b 19 63 82 83 84 103
b 20 5 26 45 65 82 84 101 103 122
b 21 82 101 102 103 122
b 22 5 26 45 47 65 66 84 101 103 122
b 23 26 45 46 47 66
b 24 5 26 47 65 66 84 87 101 103 106 122 125 143 144
b 25 5 26 47 66 87 101 106 122 125 143 144 165 186 207 228
b 26 101 106 122 125 143 144 165 186 207 228
b 27 101 122 143 144 165 186 207 226 228
b 28 101 122 143 144 165 186 205 207 226
b 29 186 205 206 207 226
b 30 101 122 143 144 165 184 186 205 226
b 31 165 184 185 186 205
b 32 101 122 143 144 163 165 184 205 226
b 33 101 122 143 163 184 205 224 226
b 34 205 224 225 226
b 35 101 122 143 163 181 182 184 205 224
b 36 101 122 143 162 163 181 182
b 37 101 122 141 143 162 181
b 38 122 141 142 143 162
b 39 101 121 122 141
b 40 141 161 162 181
b 41 163 181 182 184 203 205 224
b 42 181 182 203 223 224
b 43 181 182 202 203 223
b 44 184 203 204 205 224
b 45 163 182 183 184 203
b 46 144 163 164 165 184
b 47 207 226 227 228
b 48 5 26 47 66 87 106 125 144 146 165 186 207 228
b 49 5 26 47 66 87 106 125 146 165 167 186 207 228
b 50 5 26 47 66 87 106 125 146 167 186 188 207 228
b 51 167 186 187 188 207
b 52 5 26 47 66 68 87 106 125 146 167 188 207 228
b 53 5 26 47 68 87 106 125 146 167 188 207 209 228
b 54 5 26 47 68 87 106 108 125 129 146 148 167 188 209 228
b 55 5 26 47 68 87 108 125 129 146 148 167 188 209 228
b 56 5 26 47 68 87 89 108 129 148 167 188 209 228
b 57 5 26 47 68 89 108 110 129 148 167 188 209 228
b 58 89 108 109 110 129
b 59 5 26 47 68 89 110 129 148 150 167 171 188 190 209 228
b 60 129 148 150 167 171 188 190 209 228
b 61 129 148 150 167 169 171 188 190 209
b 62 150 169 170 171 190
b 63 129 148 149 150 169
b 64 169 188 189 190 209
b 65 148 167 168 169 188
b 66 5 26 47 68 89 110 129 131 150 171 190 209 228
b 67 110 129 130 131 150
b 68 5 26 47 68 89 110 131 150 152 171 190 209 228
b 69 5 9 26 30 47 49 68 89 110 131 152 171 190 209 228
b 70 9 30 49 68 70 89 110 131 152 171 190 209 228
b 71 9 30 49 51 70 89 110 131 152 171 190 209 228
b 72 9 30 51 70 89 91 110 131 152 171 190 209 228
b 73 70 89 90 91 110
b 74 9 30 51 70 72 91 110 131 152 171 190 209 228
b 75 9 30 51 72 91 110 112 131 152 171 190 209 228
b 76 91 110 111 112 131
b 77 9 13 30 34 51 53 72 91 112 131 152 171 190 209 228
b 78 9 13 30 32 34 51 53 72
b 79 9 11 13 30 32 51
b 80 9 10 11 30
b 81 11 30 31 32 51
b 82 11 12 13 32
b 83 13 32 33 34 53
b 84 32 51 52 53 72
b 85 13 34 53 72 91 112 131 152 171 190 192 209 213 228 232
b 86 171 190 192 209 211 213 228 232
b 87 190 192 209 211 213 228 232
b 88 190 209 211 228 230 232
b 89 209 228 229 230
b 90 211 230 231 232
b 91 190 209 210 211 230
b 92 192 211 212 213 232
b 93 171 190 191 192 211
b 94 13 34 53 72 91 112 131 152 171 173 192 213 232
b 95 13 34 53 72 91 112 131 152 173 192 194 213 232
b 96 13 34 53 72 91 93 112 131 152 173 194 213 232
b 97 72 91 92 93 112
b 98 13 34 53 72 74 93 112 131 152 173 194 213 232
b 99 53 72 73 74 93
b 100 13 34 53 55 74 93 112 131 152 173 194 213 232
b 101 34 53 54 55 74
b 102 13 34 55 74 93 112 114 131 135 152 154 173 194 213 232
b 103 93 112 114 131 133 135 152 154 173
b 104 93 112 113 114 133
b 105 112 131 132 133 152
b 106 114 133 134 135 154
b 107 133 152 153 154 173
b 108 173 192 193 194 213
b 109 152 171 172 173 192
b 110 51 70 71 72 91
b 111 30 49 50 51 70
b 112 49 68 69 70 89
b 113 5 9 26 28 30 47 49 68
b 114 28 47 48 49 68
b 115 5 7 9 26 28 47
b 116 7 26 27 28 47
b 117 7 8 9 28
b 118 5 6 7 26
b 119 9 28 29 30 49
b 120 131 150 151 152 171
b 121 68 87 88 89 108
b 122 87 106 108 125 127 129 146 148 167
b 123 127 146 147 148 167
b 124 87 106 107 108 127
b 125 108 127 128 129 148
b 126 106 125 126 127 146
b 127 188 207 208 209 228
b 128 47 66 67 68 87
b 129 146 165 166 167 186
b 130 125 144 145 146 165
b 131 65 66 84 87 103 105 106 122 125 143 144
b 132 65 66 84 86 87 105 106
b 133 65 84 85 86 105
b 134 84 103 105 122 124 125 143 144
b 135 103 122 123 124 143
b 136 84 103 104 105 124
b 137 5 24 25 26 45
b 138 61 81 82 101
b 139 42 61 62 63 82
b 140 23 42 43 44 63
b 141 3 23 41 42 61
b 142 3 22 23 41 42
b 143 154 173 174 175 194
b 144 55 74 75 76 95
b 145 116 135 136 137 156
b 146 13 34 55 74 93 114 135 154 173 175 194 213 232
b 147 13 34 55 74 93 114 135 154 156 175 194 213 232
b 148 13 34 55 74 93 95 114 135 156 175 194 213 232
b 149 13 34 55 74 76 95 114 135 156 175 194 213 232
b 150 13 34 55 76 95 114 116 135 156 175 194 213 232
b 151 13 34 55 76 95 116 135 137 156 175 194 213 232
b 152 13 34 55 76 95 97 116 137 156 175 194 213 232
b 153 13 34 55 76 97 116 118 137 156 175 194 213 232
b 154 13 34 55 76 97 118 120 137 139 156 175 194 213 232
b 155 135 154 155 156 175
b 156 118 120 137 139 156 175 194 213 215 232 236
b 157 118 120 137 139 156 175 194 196 215 236
b 158 175 194 195 196 215
b 159 118 120 137 139 156 175 177 196 215 236
b 160 156 175 176 177 196
b 161 118 120 137 139 156 158 177 196 215 236
b 162 137 156 157 158 177
b 163 120 139 158 160 177 196 215 236
b 164 120 139 140 160
b 165 139 158 160 177 196 215 217 236
b 166 196 215 216 217 236
b 167 139 158 160 177 179 196 217 236
b 168 139 158 159 160 179
b 169 158 160 177 179 196 198 217 236
b 170 158 177 178 179 198
b 171 177 196 197 198 217
b 172 160 179 198 217 236 238
b 173 217 236 237 238
b 174 160 179 198 200 217 238
b 175 179 198 200 217 218 238
b 176 179 198 199 200 218 238
b 177 199 200 218 219 238
b 178 160 179 180 200
b 179 118 137 138 139 158
b 180 194 213 215 232 234 236
b 181 213 232 233 234
b 182 215 234 235 236
b 183 194 213 214 215 234
b 184 13 17 34 36 55 76 97 118 120 139
b 185 13 15 17 34 36 55
b 186 13 14 15 34
b 187 15 16 17 36
b 188 15 34 35 36 55
b 189 17 36 55 76 97 99 118 120 139
b 190 99 118 119 120 139
b 191 17 36 55 76 78 97 99 118 120
b 192 17 36 55 57 76 78 97 99 120
b 193 17 36 57 78 80 99 120
b 194 80 99 100 120
b 195 17 36 57 59 78 80 99
b 196 59 78 79 80 99
b 197 17 36 38 57 59 78 80
b 198 38 57 58 59 78
b 199 17 38 59 60 80
b 200 17 18 38 59 60
b 201 18 38 39 59 60
b 202 17 36 37 38 57
b 203 57 76 77 78 97
b 204 36 55 56 57 76
b 205 78 97 98 99 118
b 206 97 116 117 118 137
b 207 74 93 94 95 114
b 208 76 95 96 97 116
b 209 95 114 115 116 135
b 210 220 239 240
b 211 201 221 222
b 212 19 20 40
1 2
2 4
3 212
3 5
4 142
5 201
6 211
6 8
7 210
7 9
8 43
9 177
10 11
11 141
11 12
12 140
12 13
13 139
13 14
14 138
14 15
15 137
15 16
16 18
16 17
18 20
18 19
20 22
20 21
22 24
22 23
24 131
24 25
25 48
25 26
26 27
27 47
27 28
28 29
28 30
30 31
30 32
32 46
32 33
33 34
33 35
35 36
35 41
36 37
37 39
37 40
37 38
41 42
41 44
41 45
42 43
48 130
48 49
49 129
49 50
50 52
50 51
52 128
52 53
53 127
53 54
54 122
54 55
55 56
56 121
56 57
57 59
57 58
59 66
59 60
60 61
61 62
61 63
61 64
61 65
66 68
66 67
68 120
68 69
69 113
69 70
70 112
70 71
71 111
71 72
72 73
72 74
74 110
74 75
75 77
75 76
77 85
77 78
78 83
78 84
78 79
79 80
79 82
79 81
85 94
85 86
86 92
86 93
86 87
87 88
88 89
88 90
88 91
94 109
94 95
95 96
95 108
96 97
96 98
98 100
98 99
100 102
100 101
102 146
102 103
103 104
103 105
103 106
103 107
113 119
113 114
113 115
115 118
115 117
115 116
122 125
122 126
122 124
122 123
131 134
131 132
132 133
134 136
134 135
141 142
143 146
144 149
145 151
146 147
147 155
147 148
148 207
148 149
149 150
150 209
150 151
151 152
152 208
152 153
153 206
153 154
154 156
154 184
156 157
156 180
157 158
157 159
159 161
159 160
161 179
161 162
161 163
163 164
163 165
165 166
165 167
167 168
167 169
169 170
169 171
169 172
172 173
172 174
174 178
174 175
175 176
176 177
180 183
180 181
180 182
184 185
184 189
185 186
185 187
185 188
189 190
189 191
191 205
191 192
192 204
192 203
192 193
193 194
193 195
195 196
195 197
197 199
197 202
197 198
199 200
200 201
